p cnf 11 22
-11 9 -1 0
11 7 -1 0
11 -6 4 0
11 -6 1 0
10 -9 1 0
-10 8 -1 0
-10 7 2 0
-10 -2 -1 0
9 -8 7 0
9 8 1 0
-9 7 -3 0
9 6 -5 0
9 4 2 0
9 -3 1 0
8 5 -3 0
-8 4 -3 0
-7 6 2 0
-7 -6 2 0
7 5 -3 0
7 2 -1 0
4 -2 1 0
4 2 1 0
